NAME: path_n64
TYPE: TSP
DIMENSION: 64
EDGE_WEIGHT_TYPE: EUC_2D
NODE_COORD_SECTION
1 0.000000 0.000000
2 10.000000 0.000000
3 20.000000 0.000000
4 30.000000 0.000000
5 40.000000 0.000000
6 50.000000 0.000000
7 60.000000 0.000000
8 70.000000 0.000000
9 80.000000 0.000000
10 90.000000 0.000000
11 100.000000 0.000000
12 110.000000 0.000000
13 120.000000 0.000000
14 130.000000 0.000000
15 140.000000 0.000000
16 150.000000 0.000000
17 160.000000 0.000000
18 170.000000 0.000000
19 180.000000 0.000000
20 190.000000 0.000000
21 200.000000 0.000000
22 210.000000 0.000000
23 220.000000 0.000000
24 230.000000 0.000000
25 240.000000 0.000000
26 250.000000 0.000000
27 260.000000 0.000000
28 270.000000 0.000000
29 280.000000 0.000000
30 290.000000 0.000000
31 300.000000 0.000000
32 310.000000 0.000000
33 320.000000 0.000000
34 330.000000 0.000000
35 340.000000 0.000000
36 350.000000 0.000000
37 360.000000 0.000000
38 370.000000 0.000000
39 380.000000 0.000000
40 390.000000 0.000000
41 400.000000 0.000000
42 410.000000 0.000000
43 420.000000 0.000000
44 430.000000 0.000000
45 440.000000 0.000000
46 450.000000 0.000000
47 460.000000 0.000000
48 470.000000 0.000000
49 480.000000 0.000000
50 490.000000 0.000000
51 500.000000 0.000000
52 510.000000 0.000000
53 520.000000 0.000000
54 530.000000 0.000000
55 540.000000 0.000000
56 550.000000 0.000000
57 560.000000 0.000000
58 570.000000 0.000000
59 580.000000 0.000000
60 590.000000 0.000000
61 600.000000 0.000000
62 610.000000 0.000000
63 620.000000 0.000000
64 630.000000 0.000000
EOF
